\ SCIP STATISTICS
\   Problem name     : data/t25-5-1000-2-s-1.mochila
\   Variables        : 15 (15 binary, 0 integer, 0 implicit integer, 0 continuous)
\   Constraints      : 8
Maximize
 Obj: +399 x_0_0 +399 x_0_1 +399 x_0_2 +599 x_1_0 +599 x_1_1 +599 x_1_2 +958 x_2_0 +958 x_2_1 +958 x_2_2
      +900 x_3_0 +900 x_3_1 +900 x_3_2 +500 x_4_0 +500 x_4_1 +500 x_4_2
Subject to
 capacity_0: +400 x_0_0 +600 x_1_0 +900 x_2_0 +500 x_3_0 +400 x_4_0 <= +1100
 capacity_1: +400 x_0_1 +600 x_1_1 +900 x_2_1 +500 x_3_1 +400 x_4_1 <= +1000
 capacity_2: +400 x_0_2 +600 x_1_2 +900 x_2_2 +500 x_3_2 +400 x_4_2 <= +900
 item_0: +1 x_0_0 +1 x_0_1 +1 x_0_2 <= +1
 item_1: +1 x_1_0 +1 x_1_1 +1 x_1_2 <= +1
 item_2: +1 x_2_0 +1 x_2_1 +1 x_2_2 <= +1
 item_3: +1 x_3_0 +1 x_3_1 +1 x_3_2 <= +1
 item_4: +1 x_4_0 +1 x_4_1 +1 x_4_2 <= +1
Bounds
 0 <= x_0_0 <= 1
 0 <= x_0_1 <= 1
 0 <= x_0_2 <= 1
 0 <= x_1_0 <= 1
 0 <= x_1_1 <= 1
 0 <= x_1_2 <= 1
 0 <= x_2_0 <= 1
 0 <= x_2_1 <= 1
 0 <= x_2_2 <= 1
 0 <= x_3_0 <= 1
 0 <= x_3_1 <= 1
 0 <= x_3_2 <= 1
 0 <= x_4_0 <= 1
 0 <= x_4_1 <= 1
 0 <= x_4_2 <= 1
Binaries
 x_0_0 x_0_1 x_0_2 x_1_0 x_1_1 x_1_2 x_2_0 x_2_1 x_2_2 x_3_0 x_3_1 x_3_2 x_4_0 x_4_1 x_4_2
End
